
===== New CPLEX run =====
Instance: /home/yorig/tuner/mpils-tests/instances/miplib/medium-1/momentum1.mps
Config: /scratch/yorig/mpils-results-grid-ticks-10000/medium-1/16proc/seed-5/6_momentum1_seed-5_20260425_215516/iterated_local_search/run_2_worker_4/ils_config_13179571081391617438.prm
========================

Selected objective sense:  MINIMIZE
Selected objective  name:  MINIMIZE
Selected RHS        name:  rhs
Selected bound      name:  bnd
Version identifier: 22.1.2.0 | 2024-11-26 | 0edbb82fd
CPXPARAM_Threads                                 8
CPXPARAM_Parallel                                1
CPXPARAM_MIP_Strategy_Branch                     -1
CPXPARAM_MIP_Cuts_Cliques                        2
CPXPARAM_MIP_Cuts_FlowCovers                     2
CPXPARAM_MIP_Cuts_GUBCovers                      2
CPXPARAM_MIP_Limits_GomoryCand                   800
CPXPARAM_MIP_Cuts_Gomory                         2
CPXPARAM_MIP_Cuts_PathCut                        2
CPXPARAM_MIP_Cuts_MIRCut                         1
CPXPARAM_MIP_Cuts_Disjunctive                    1
CPXPARAM_Emphasis_MIP                            4
CPXPARAM_DetTimeLimit                            10000
Tried aggregator 3 times.
MIP Presolve eliminated 30810 rows and 1362 columns.
MIP Presolve modified 22293 coefficients.
Aggregator did 232 substitutions.
Reduced MIP has 11638 rows, 3580 columns, and 46688 nonzeros.
Reduced MIP has 1625 binaries, 0 generals, 0 SOSs, and 0 indicators.
Presolve time = 0.10 sec. (139.58 ticks)
Found incumbent of value 533875.101733 after 0.12 sec. (154.72 ticks)
Probing fixed 392 vars, tightened 1078 bounds.
Probing changed sense of 113 constraints.
Probing time = 0.08 sec. (90.30 ticks)
Cover probing fixed 0 vars, tightened 267 bounds.
Tried aggregator 2 times.
MIP Presolve eliminated 3295 rows and 847 columns.
MIP Presolve modified 7082 coefficients.
Aggregator did 11 substitutions.
Reduced MIP has 8332 rows, 2722 columns, and 31418 nonzeros.
Reduced MIP has 1168 binaries, 0 generals, 0 SOSs, and 0 indicators.
Presolve time = 0.04 sec. (44.43 ticks)
Probing fixed 1 vars, tightened 256 bounds.
Probing time = 0.05 sec. (44.20 ticks)
Cover probing fixed 0 vars, tightened 190 bounds.
Tried aggregator 1 time.
Detecting symmetries...
MIP Presolve eliminated 26 rows and 2 columns.
MIP Presolve modified 5059 coefficients.
Reduced MIP has 8306 rows, 2720 columns, and 31355 nonzeros.
Reduced MIP has 1167 binaries, 0 generals, 0 SOSs, and 0 indicators.
Presolve time = 0.02 sec. (22.06 ticks)
Probing fixed 0 vars, tightened 90 bounds.
Probing time = 0.04 sec. (40.55 ticks)
Cover probing fixed 0 vars, tightened 69 bounds.
Clique table members: 18692.
MIP emphasis: hidden feasible solutions.
MIP search method: dynamic search.
Parallel mode: deterministic, using up to 8 threads.
Root relaxation solution time = 0.11 sec. (144.31 ticks)

        Nodes                                         Cuts/
   Node  Left     Objective  IInf  Best Integer    Best Bound    ItCnt     Gap

*     0+    0                       533875.1017    44880.8652            91.59%
*     0+    0                       533847.9795    44880.8652            91.59%
*     0+    0                       333826.8649    44880.8652            86.56%
*     0+    0                       333809.0666    44880.8652            86.55%
      0     0    79213.0345   216   333809.0666    79213.0345     1531   76.27%
      0     0    96255.0282   295   333809.0666     Cuts: 233     2057   71.16%
      0     0    96264.3271   294   333809.0666     Cuts: 119     2633   71.16%
      0     0    96265.1819   299   333809.0666      Cuts: 87     2748   71.16%
*     0+    0                       333808.9660    96265.1819            71.16%
      0     0  -1.00000e+75     0   333808.9660    96265.1819     2748   71.16%
*     0+    0                       320985.2647    96265.1819            70.01%
      0     0    96268.0377   318   320985.2647      Cuts: 49     2921   70.01%
*     0+    0                       314565.4289    96268.0377            69.40%
*     0+    0                       128457.4569    96285.3254            25.04%
Detecting symmetries...
      0     2    96268.0377   318   128457.4569    96285.3254     2921   25.04%
Elapsed time = 4.23 sec. (6606.98 ticks, tree = 0.02 MB, solutions = 8)
     19    13   101664.5758   233   128457.4569    96285.3254     4263   25.04%
    108    91    97095.4355   219   128457.4569    96341.5513    12230   25.00%
    165    79   103947.8054   278   128457.4569    96341.5513    12335   25.00%
    194   180   116407.3655   240   128457.4569    96341.5513    23408   25.00%
    242   219   109105.0177   277   128457.4569    96341.5513    29335   25.00%
    272   247   116455.4170   167   128457.4569    96341.5513    33491   25.00%
    314   272   116750.1697   189   128457.4569    96341.5513    37202   25.00%
    344   309   128429.7458   155   128457.4569    96341.5513    39708   25.00%
    397   350   104577.5343   215   128457.4569    96397.4193    45585   24.96%
    603   464   102739.7850   191   128457.4569    96399.5559    62267   24.96%
Elapsed time = 6.15 sec. (9743.16 ticks, tree = 3.79 MB, solutions = 8)
*   632+  434                       128457.4568    96399.5559            24.96%

GUB cover cuts applied:  0
Clique cuts applied:  36
Implied bound cuts applied:  17
Flow cuts applied:  76
Mixed integer rounding cuts applied:  33
Flow path cuts applied:  0
Zero-half cuts applied:  17
Gomory fractional cuts applied:  16
Disjunctive cuts applied:  0
Cone linearizations applied:  0

Root node processing (before b&c):
  Real time             =    4.20 sec. (6571.50 ticks)
Parallel b&c, 8 threads:
  Real time             =    2.10 sec. (3434.83 ticks)
  Sync time (average)   =    0.26 sec.
  Wait time (average)   =    0.00 sec.
                          ------------
Total (root+branch&cut) =    6.30 sec. (10006.33 ticks)
Gap: 24.96%
Upper bound: 128457
Lower bound: 96399.6
End of CPLEX run. Time: 6.3012 seconds

===== New CPLEX run =====
Instance: /home/yorig/tuner/mpils-tests/instances/miplib/medium-1/momentum1.mps
Config: /scratch/yorig/mpils-results-grid-ticks-10000/medium-1/16proc/seed-5/6_momentum1_seed-5_20260425_215516/iterated_local_search/run_2_worker_4/ils_config_15733878337258819922.prm
========================

Selected objective sense:  MINIMIZE
Selected objective  name:  MINIMIZE
Selected RHS        name:  rhs
Selected bound      name:  bnd
Version identifier: 22.1.2.0 | 2024-11-26 | 0edbb82fd
CPXPARAM_Threads                                 8
CPXPARAM_Parallel                                1
CPXPARAM_MIP_Strategy_Branch                     -1
CPXPARAM_MIP_Cuts_Cliques                        2
CPXPARAM_MIP_Cuts_FlowCovers                     2
CPXPARAM_MIP_Cuts_GUBCovers                      2
CPXPARAM_MIP_Limits_GomoryCand                   800
CPXPARAM_MIP_Cuts_Gomory                         2
CPXPARAM_MIP_Cuts_PathCut                        2
CPXPARAM_MIP_Cuts_MIRCut                         2
CPXPARAM_MIP_Cuts_Disjunctive                    1
CPXPARAM_Emphasis_MIP                            4
CPXPARAM_DetTimeLimit                            10000
Tried aggregator 3 times.
MIP Presolve eliminated 30810 rows and 1362 columns.
MIP Presolve modified 22293 coefficients.
Aggregator did 232 substitutions.
Reduced MIP has 11638 rows, 3580 columns, and 46688 nonzeros.
Reduced MIP has 1625 binaries, 0 generals, 0 SOSs, and 0 indicators.
Presolve time = 0.10 sec. (139.58 ticks)
Found incumbent of value 533875.101733 after 0.12 sec. (154.72 ticks)
Probing fixed 392 vars, tightened 1078 bounds.
Probing changed sense of 113 constraints.
Probing time = 0.08 sec. (90.30 ticks)
Cover probing fixed 0 vars, tightened 267 bounds.
Tried aggregator 2 times.
MIP Presolve eliminated 3295 rows and 847 columns.
MIP Presolve modified 7082 coefficients.
Aggregator did 11 substitutions.
Reduced MIP has 8332 rows, 2722 columns, and 31418 nonzeros.
Reduced MIP has 1168 binaries, 0 generals, 0 SOSs, and 0 indicators.
Presolve time = 0.04 sec. (44.43 ticks)
Probing fixed 1 vars, tightened 256 bounds.
Probing time = 0.04 sec. (44.20 ticks)
Cover probing fixed 0 vars, tightened 190 bounds.
Tried aggregator 1 time.
Detecting symmetries...
MIP Presolve eliminated 26 rows and 2 columns.
MIP Presolve modified 5059 coefficients.
Reduced MIP has 8306 rows, 2720 columns, and 31355 nonzeros.
Reduced MIP has 1167 binaries, 0 generals, 0 SOSs, and 0 indicators.
Presolve time = 0.02 sec. (22.06 ticks)
Probing fixed 0 vars, tightened 90 bounds.
Probing time = 0.04 sec. (40.55 ticks)
Cover probing fixed 0 vars, tightened 69 bounds.
Clique table members: 18692.
MIP emphasis: hidden feasible solutions.
MIP search method: dynamic search.
Parallel mode: deterministic, using up to 8 threads.
Root relaxation solution time = 0.11 sec. (144.31 ticks)

        Nodes                                         Cuts/
   Node  Left     Objective  IInf  Best Integer    Best Bound    ItCnt     Gap

*     0+    0                       533875.1017    44880.8652            91.59%
*     0+    0                       533847.9795    44880.8652            91.59%
*     0+    0                       333826.8649    44880.8652            86.56%
*     0+    0                       333809.0666    44880.8652            86.55%
      0     0    79213.0345   216   333809.0666    79213.0345     1531   76.27%
      0     0    96255.0282   295   333809.0666     Cuts: 233     2057   71.16%
      0     0    96264.3271   294   333809.0666     Cuts: 119     2633   71.16%
      0     0    96265.1819   299   333809.0666      Cuts: 87     2748   71.16%
*     0+    0                       333808.9660    96265.1819            71.16%
      0     0  -1.00000e+75     0   333808.9660    96265.1819     2748   71.16%
*     0+    0                       320985.2647    96265.1819            70.01%
      0     0    96268.0377   318   320985.2647      Cuts: 49     2921   70.01%
*     0+    0                       314565.4289    96268.0377            69.40%
*     0+    0                       128457.4569    96285.3254            25.04%
Detecting symmetries...
      0     2    96268.0377   318   128457.4569    96285.3254     2921   25.04%
Elapsed time = 4.24 sec. (6606.98 ticks, tree = 0.02 MB, solutions = 8)
     19    13   101664.5758   233   128457.4569    96285.3254     4263   25.04%
    108    91    97095.4355   219   128457.4569    96341.5513    12230   25.00%
    165    79   103947.8054   278   128457.4569    96341.5513    12335   25.00%
    194   180   116407.3655   240   128457.4569    96341.5513    23408   25.00%
    242   219   109105.0177   277   128457.4569    96341.5513    29335   25.00%
    272   247   116455.4170   167   128457.4569    96341.5513    33491   25.00%
    314   272   116750.1697   189   128457.4569    96341.5513    37202   25.00%
    344   309   128429.7458   155   128457.4569    96341.5513    39708   25.00%
    397   350   104577.5343   215   128457.4569    96397.4193    45585   24.96%
    493   418    infeasible         128457.4569    96397.9281    63936   24.96%
Elapsed time = 6.28 sec. (9738.79 ticks, tree = 3.52 MB, solutions = 8)

GUB cover cuts applied:  0
Clique cuts applied:  37
Implied bound cuts applied:  17
Flow cuts applied:  190
Mixed integer rounding cuts applied:  153
Flow path cuts applied:  0
Zero-half cuts applied:  16
Gomory fractional cuts applied:  16
Disjunctive cuts applied:  0
Cone linearizations applied:  0

Root node processing (before b&c):
  Real time             =    4.21 sec. (6571.45 ticks)
Parallel b&c, 8 threads:
  Real time             =    2.26 sec. (3438.92 ticks)
  Sync time (average)   =    0.34 sec.
  Wait time (average)   =    0.00 sec.
                          ------------
Total (root+branch&cut) =    6.47 sec. (10010.36 ticks)
Gap: 24.96%
Upper bound: 128457
Lower bound: 96397.9
End of CPLEX run. Time: 6.46815 seconds

===== New CPLEX run =====
Instance: /home/yorig/tuner/mpils-tests/instances/miplib/medium-1/momentum1.mps
Config: /scratch/yorig/mpils-results-grid-ticks-10000/medium-1/16proc/seed-5/6_momentum1_seed-5_20260425_215516/iterated_local_search/run_2_worker_4/ils_config_13499939747940413359.prm
========================

Selected objective sense:  MINIMIZE
Selected objective  name:  MINIMIZE
Selected RHS        name:  rhs
Selected bound      name:  bnd
Version identifier: 22.1.2.0 | 2024-11-26 | 0edbb82fd
CPXPARAM_Threads                                 8
CPXPARAM_Parallel                                1
CPXPARAM_MIP_Strategy_Branch                     -1
CPXPARAM_MIP_Cuts_Cliques                        2
CPXPARAM_MIP_Cuts_FlowCovers                     2
CPXPARAM_MIP_Cuts_GUBCovers                      2
CPXPARAM_MIP_Limits_GomoryCand                   800
CPXPARAM_MIP_Cuts_Gomory                         2
CPXPARAM_MIP_Cuts_PathCut                        2
CPXPARAM_MIP_Cuts_MIRCut                         1
CPXPARAM_MIP_Cuts_Disjunctive                    -1
CPXPARAM_Emphasis_MIP                            4
CPXPARAM_DetTimeLimit                            10000
Tried aggregator 3 times.
MIP Presolve eliminated 30810 rows and 1362 columns.
MIP Presolve modified 22293 coefficients.
Aggregator did 232 substitutions.
Reduced MIP has 11638 rows, 3580 columns, and 46688 nonzeros.
Reduced MIP has 1625 binaries, 0 generals, 0 SOSs, and 0 indicators.
Presolve time = 0.10 sec. (139.58 ticks)
Found incumbent of value 533875.101733 after 0.12 sec. (154.72 ticks)
Probing fixed 392 vars, tightened 1078 bounds.
Probing changed sense of 113 constraints.
Probing time = 0.08 sec. (90.30 ticks)
Cover probing fixed 0 vars, tightened 267 bounds.
Tried aggregator 2 times.
MIP Presolve eliminated 3295 rows and 847 columns.
MIP Presolve modified 7082 coefficients.
Aggregator did 11 substitutions.
Reduced MIP has 8332 rows, 2722 columns, and 31418 nonzeros.
Reduced MIP has 1168 binaries, 0 generals, 0 SOSs, and 0 indicators.
Presolve time = 0.04 sec. (44.43 ticks)
Probing fixed 1 vars, tightened 256 bounds.
Probing time = 0.04 sec. (44.20 ticks)
Cover probing fixed 0 vars, tightened 190 bounds.
Tried aggregator 1 time.
Detecting symmetries...
MIP Presolve eliminated 26 rows and 2 columns.
MIP Presolve modified 5059 coefficients.
Reduced MIP has 8306 rows, 2720 columns, and 31355 nonzeros.
Reduced MIP has 1167 binaries, 0 generals, 0 SOSs, and 0 indicators.
Presolve time = 0.02 sec. (22.06 ticks)
Probing fixed 0 vars, tightened 90 bounds.
Probing time = 0.04 sec. (40.55 ticks)
Cover probing fixed 0 vars, tightened 69 bounds.
Clique table members: 18692.
MIP emphasis: hidden feasible solutions.
MIP search method: dynamic search.
Parallel mode: deterministic, using up to 8 threads.
Root relaxation solution time = 0.11 sec. (144.31 ticks)

        Nodes                                         Cuts/
   Node  Left     Objective  IInf  Best Integer    Best Bound    ItCnt     Gap

*     0+    0                       533875.1017    44880.8652            91.59%
*     0+    0                       533847.9795    44880.8652            91.59%
*     0+    0                       333826.8649    44880.8652            86.56%
*     0+    0                       333809.0666    44880.8652            86.55%
      0     0    79213.0345   216   333809.0666    79213.0345     1531   76.27%
      0     0    96255.0282   295   333809.0666     Cuts: 233     2057   71.16%
      0     0    96264.3271   294   333809.0666     Cuts: 119     2633   71.16%
      0     0    96265.1819   299   333809.0666      Cuts: 87     2748   71.16%
*     0+    0                       333808.9660    96265.1819            71.16%
      0     0  -1.00000e+75     0   333808.9660    96265.1819     2748   71.16%
*     0+    0                       320985.2647    96265.1819            70.01%
      0     0    96268.0377   318   320985.2647      Cuts: 49     2921   70.01%
*     0+    0                       314565.4289    96268.0377            69.40%
*     0+    0                       128457.4569    96285.3254            25.04%
Detecting symmetries...
      0     2    96268.0377   318   128457.4569    96285.3254     2921   25.04%
Elapsed time = 4.23 sec. (6606.98 ticks, tree = 0.02 MB, solutions = 8)
     19    13   101664.5758   233   128457.4569    96285.3254     4263   25.04%
    108    91    97095.4355   219   128457.4569    96341.5513    12230   25.00%
    165    79   103947.8054   278   128457.4569    96341.5513    12335   25.00%
    194   180   116407.3655   240   128457.4569    96341.5513    23408   25.00%
    242   219   109105.0177   277   128457.4569    96341.5513    29335   25.00%
    272   247   116455.4170   167   128457.4569    96341.5513    33491   25.00%
    314   272   116750.1697   189   128457.4569    96341.5513    37202   25.00%
    344   309   128429.7458   155   128457.4569    96341.5513    39708   25.00%
    397   350   104577.5343   215   128457.4569    96397.4193    45585   24.96%
    603   464   102739.7850   191   128457.4569    96399.5559    62267   24.96%
Elapsed time = 6.22 sec. (9743.16 ticks, tree = 3.79 MB, solutions = 8)
*   632+  434                       128457.4568    96399.5559            24.96%

GUB cover cuts applied:  0
Clique cuts applied:  36
Implied bound cuts applied:  17
Flow cuts applied:  76
Mixed integer rounding cuts applied:  33
Flow path cuts applied:  0
Zero-half cuts applied:  17
Gomory fractional cuts applied:  16

Root node processing (before b&c):
  Real time             =    4.20 sec. (6571.50 ticks)
Parallel b&c, 8 threads:
  Real time             =    2.17 sec. (3434.83 ticks)
  Sync time (average)   =    0.27 sec.
  Wait time (average)   =    0.00 sec.
                          ------------
Total (root+branch&cut) =    6.37 sec. (10006.33 ticks)
Gap: 24.96%
Upper bound: 128457
Lower bound: 96399.6
End of CPLEX run. Time: 6.37459 seconds

===== New CPLEX run =====
Instance: /home/yorig/tuner/mpils-tests/instances/miplib/medium-1/momentum1.mps
Config: /scratch/yorig/mpils-results-grid-ticks-10000/medium-1/16proc/seed-5/6_momentum1_seed-5_20260425_215516/iterated_local_search/run_2_worker_4/ils_config_10818471880745300817.prm
========================

Selected objective sense:  MINIMIZE
Selected objective  name:  MINIMIZE
Selected RHS        name:  rhs
Selected bound      name:  bnd
Version identifier: 22.1.2.0 | 2024-11-26 | 0edbb82fd
CPXPARAM_Threads                                 8
CPXPARAM_Parallel                                1
CPXPARAM_MIP_Strategy_Branch                     -1
CPXPARAM_MIP_Cuts_Cliques                        2
CPXPARAM_MIP_Cuts_FlowCovers                     2
CPXPARAM_MIP_Cuts_GUBCovers                      -1
CPXPARAM_MIP_Limits_GomoryCand                   800
CPXPARAM_MIP_Cuts_Gomory                         2
CPXPARAM_MIP_Cuts_PathCut                        2
CPXPARAM_MIP_Cuts_MIRCut                         1
CPXPARAM_MIP_Cuts_Disjunctive                    1
CPXPARAM_Emphasis_MIP                            4
CPXPARAM_DetTimeLimit                            10000
Tried aggregator 3 times.
MIP Presolve eliminated 30810 rows and 1362 columns.
MIP Presolve modified 22293 coefficients.
Aggregator did 232 substitutions.
Reduced MIP has 11638 rows, 3580 columns, and 46688 nonzeros.
Reduced MIP has 1625 binaries, 0 generals, 0 SOSs, and 0 indicators.
Presolve time = 0.10 sec. (139.58 ticks)
Found incumbent of value 533875.101733 after 0.12 sec. (154.72 ticks)
Probing fixed 392 vars, tightened 1078 bounds.
Probing changed sense of 113 constraints.
Probing time = 0.08 sec. (90.30 ticks)
Cover probing fixed 0 vars, tightened 267 bounds.
Tried aggregator 2 times.
MIP Presolve eliminated 3295 rows and 847 columns.
MIP Presolve modified 7082 coefficients.
Aggregator did 11 substitutions.
Reduced MIP has 8332 rows, 2722 columns, and 31418 nonzeros.
Reduced MIP has 1168 binaries, 0 generals, 0 SOSs, and 0 indicators.
Presolve time = 0.04 sec. (44.43 ticks)
Probing fixed 1 vars, tightened 256 bounds.
Probing time = 0.04 sec. (44.20 ticks)
Cover probing fixed 0 vars, tightened 190 bounds.
Tried aggregator 1 time.
Detecting symmetries...
MIP Presolve eliminated 26 rows and 2 columns.
MIP Presolve modified 5059 coefficients.
Reduced MIP has 8306 rows, 2720 columns, and 31355 nonzeros.
Reduced MIP has 1167 binaries, 0 generals, 0 SOSs, and 0 indicators.
Presolve time = 0.02 sec. (22.06 ticks)
Probing fixed 0 vars, tightened 90 bounds.
Probing time = 0.04 sec. (40.55 ticks)
Cover probing fixed 0 vars, tightened 69 bounds.
Clique table members: 18692.
MIP emphasis: hidden feasible solutions.
MIP search method: dynamic search.
Parallel mode: deterministic, using up to 8 threads.
Root relaxation solution time = 0.11 sec. (144.31 ticks)

        Nodes                                         Cuts/
   Node  Left     Objective  IInf  Best Integer    Best Bound    ItCnt     Gap

*     0+    0                       533875.1017    44880.8652            91.59%
*     0+    0                       533847.9795    44880.8652            91.59%
*     0+    0                       333826.8649    44880.8652            86.56%
*     0+    0                       333809.0666    44880.8652            86.55%
      0     0    79213.0345   216   333809.0666    79213.0345     1531   76.27%
      0     0    96255.0282   295   333809.0666     Cuts: 233     2057   71.16%
      0     0    96264.3271   294   333809.0666     Cuts: 119     2633   71.16%
      0     0    96265.1819   299   333809.0666      Cuts: 87     2748   71.16%
*     0+    0                       333808.9660    96265.1819            71.16%
      0     0  -1.00000e+75     0   333808.9660    96265.1819     2748   71.16%
*     0+    0                       320985.2647    96265.1819            70.01%
      0     0    96268.0377   318   320985.2647      Cuts: 49     2921   70.01%
*     0+    0                       314565.4289    96268.0377            69.40%
*     0+    0                       128457.4569    96285.3254            25.04%
Detecting symmetries...
      0     2    96268.0377   318   128457.4569    96285.3254     2921   25.04%
Elapsed time = 4.26 sec. (6605.76 ticks, tree = 0.02 MB, solutions = 8)
     20    15    96399.7749   240   128457.4569    96285.3254     5004   25.04%
    110    95    97114.6936   245   128457.4569    96341.5513    12386   25.00%
    166   159   111044.1545   230   128457.4569    96341.5513    18779   25.00%
    194   180   116407.3655   240   128457.4569    96341.5513    23408   25.00%
    242   219   109105.0177   277   128457.4569    96341.5513    29335   25.00%
    272   247   116455.4170   167   128457.4569    96341.5513    33491   25.00%
    314   272   116750.1697   189   128457.4569    96341.5513    37202   25.00%
    344   309   128429.7458   155   128457.4569    96341.5513    39708   25.00%
    397   350   104577.5343   215   128457.4569    96397.4193    45585   24.96%
    603   462   115548.4137   180   128457.4569    96399.5559    61382   24.96%
Elapsed time = 6.22 sec. (9742.05 ticks, tree = 3.80 MB, solutions = 8)
*   632+  434                       128457.4568    96399.5559            24.96%

Clique cuts applied:  36
Implied bound cuts applied:  17
Flow cuts applied:  76
Mixed integer rounding cuts applied:  33
Flow path cuts applied:  0
Zero-half cuts applied:  17
Gomory fractional cuts applied:  16
Disjunctive cuts applied:  0
Cone linearizations applied:  0

Root node processing (before b&c):
  Real time             =    4.23 sec. (6570.28 ticks)
Parallel b&c, 8 threads:
  Real time             =    2.14 sec. (3435.61 ticks)
  Sync time (average)   =    0.27 sec.
  Wait time (average)   =    0.00 sec.
                          ------------
Total (root+branch&cut) =    6.37 sec. (10005.90 ticks)
Gap: 24.96%
Upper bound: 128457
Lower bound: 96399.6
End of CPLEX run. Time: 6.37061 seconds

===== New CPLEX run =====
Instance: /home/yorig/tuner/mpils-tests/instances/miplib/medium-1/momentum1.mps
Config: /scratch/yorig/mpils-results-grid-ticks-10000/medium-1/16proc/seed-5/6_momentum1_seed-5_20260425_215516/iterated_local_search/run_2_worker_4/ils_config_2635799302275590416.prm
========================

Selected objective sense:  MINIMIZE
Selected objective  name:  MINIMIZE
Selected RHS        name:  rhs
Selected bound      name:  bnd
Version identifier: 22.1.2.0 | 2024-11-26 | 0edbb82fd
CPXPARAM_Threads                                 8
CPXPARAM_Parallel                                1
CPXPARAM_MIP_Strategy_Branch                     -1
CPXPARAM_MIP_Cuts_Cliques                        2
CPXPARAM_MIP_Cuts_FlowCovers                     2
CPXPARAM_MIP_Cuts_GUBCovers                      2
CPXPARAM_MIP_Limits_GomoryCand                   800
CPXPARAM_MIP_Cuts_Gomory                         1
CPXPARAM_MIP_Cuts_PathCut                        2
CPXPARAM_MIP_Cuts_MIRCut                         1
CPXPARAM_MIP_Cuts_Disjunctive                    1
CPXPARAM_Emphasis_MIP                            4
CPXPARAM_DetTimeLimit                            10000
Tried aggregator 3 times.
MIP Presolve eliminated 30810 rows and 1362 columns.
MIP Presolve modified 22293 coefficients.
Aggregator did 232 substitutions.
Reduced MIP has 11638 rows, 3580 columns, and 46688 nonzeros.
Reduced MIP has 1625 binaries, 0 generals, 0 SOSs, and 0 indicators.
Presolve time = 0.10 sec. (139.58 ticks)
Found incumbent of value 533875.101733 after 0.12 sec. (154.72 ticks)
Probing fixed 392 vars, tightened 1078 bounds.
Probing changed sense of 113 constraints.
Probing time = 0.08 sec. (90.30 ticks)
Cover probing fixed 0 vars, tightened 267 bounds.
Tried aggregator 2 times.
MIP Presolve eliminated 3295 rows and 847 columns.
MIP Presolve modified 7082 coefficients.
Aggregator did 11 substitutions.
Reduced MIP has 8332 rows, 2722 columns, and 31418 nonzeros.
Reduced MIP has 1168 binaries, 0 generals, 0 SOSs, and 0 indicators.
Presolve time = 0.04 sec. (44.43 ticks)
Probing fixed 1 vars, tightened 256 bounds.
Probing time = 0.05 sec. (44.20 ticks)
Cover probing fixed 0 vars, tightened 190 bounds.
Tried aggregator 1 time.
Detecting symmetries...
MIP Presolve eliminated 26 rows and 2 columns.
MIP Presolve modified 5059 coefficients.
Reduced MIP has 8306 rows, 2720 columns, and 31355 nonzeros.
Reduced MIP has 1167 binaries, 0 generals, 0 SOSs, and 0 indicators.
Presolve time = 0.02 sec. (22.06 ticks)
Probing fixed 0 vars, tightened 90 bounds.
Probing time = 0.04 sec. (40.55 ticks)
Cover probing fixed 0 vars, tightened 69 bounds.
Clique table members: 18692.
MIP emphasis: hidden feasible solutions.
MIP search method: dynamic search.
Parallel mode: deterministic, using up to 8 threads.
Root relaxation solution time = 0.11 sec. (144.31 ticks)

        Nodes                                         Cuts/
   Node  Left     Objective  IInf  Best Integer    Best Bound    ItCnt     Gap

*     0+    0                       533875.1017    44880.8652            91.59%
*     0+    0                       533847.9795    44880.8652            91.59%
*     0+    0                       333826.8649    44880.8652            86.56%
*     0+    0                       333809.0666    44880.8652            86.55%
      0     0    79213.0345   216   333809.0666    79213.0345     1531   76.27%
      0     0    96255.0282   295   333809.0666     Cuts: 233     2057   71.16%
      0     0    96264.3271   294   333809.0666     Cuts: 119     2633   71.16%
      0     0    96265.1819   299   333809.0666      Cuts: 87     2748   71.16%
*     0+    0                       333808.9660    96265.1819            71.16%
      0     0  -1.00000e+75     0   333808.9660    96265.1819     2748   71.16%
*     0+    0                       320985.2647    96265.1819            70.01%
      0     0    96268.0377   318   320985.2647      Cuts: 49     2921   70.01%
*     0+    0                       314565.4289    96268.0377            69.40%
*     0+    0                       128457.4569    96285.3254            25.04%
Detecting symmetries...
      0     2    96268.0377   318   128457.4569    96285.3254     2921   25.04%
Elapsed time = 4.16 sec. (6445.47 ticks, tree = 0.02 MB, solutions = 8)
     19    13   101664.5758   233   128457.4569    96285.3254     4263   25.04%
    108    91    97095.4355   219   128457.4569    96341.5513    12230   25.00%
    165    79   103947.8054   278   128457.4569    96341.5513    12335   25.00%
    194   180   116407.3655   240   128457.4569    96341.5513    23408   25.00%
    242   219   109105.0177   277   128457.4569    96341.5513    29335   25.00%
    272   247   116455.4170   167   128457.4569    96341.5513    33491   25.00%
    314   272   116750.1697   189   128457.4569    96341.5513    37202   25.00%
    344   309   128429.7458   155   128457.4569    96341.5513    39708   25.00%
    397   350   104577.5343   215   128457.4569    96397.4193    45585   24.96%
    595   462   115548.4137   180   128457.4569    96399.5559    61382   24.96%
Elapsed time = 6.11 sec. (9581.76 ticks, tree = 3.80 MB, solutions = 8)
*   632+  434                       128457.4568    96399.5559            24.96%

GUB cover cuts applied:  0
Clique cuts applied:  36
Implied bound cuts applied:  17
Flow cuts applied:  76
Mixed integer rounding cuts applied:  33
Flow path cuts applied:  0
Zero-half cuts applied:  17
Gomory fractional cuts applied:  16
Disjunctive cuts applied:  0
Cone linearizations applied:  0

Root node processing (before b&c):
  Real time             =    4.13 sec. (6410.00 ticks)
Parallel b&c, 8 threads:
  Real time             =    2.22 sec. (3597.14 ticks)
  Sync time (average)   =    0.28 sec.
  Wait time (average)   =    0.00 sec.
                          ------------
Total (root+branch&cut) =    6.35 sec. (10007.13 ticks)
Gap: 24.96%
Upper bound: 128457
Lower bound: 96399.6
End of CPLEX run. Time: 6.35686 seconds

===== New CPLEX run =====
Instance: /home/yorig/tuner/mpils-tests/instances/miplib/medium-1/momentum1.mps
Config: /scratch/yorig/mpils-results-grid-ticks-10000/medium-1/16proc/seed-5/6_momentum1_seed-5_20260425_215516/iterated_local_search/run_2_worker_4/ils_config_5024306730033543614.prm
========================

Selected objective sense:  MINIMIZE
Selected objective  name:  MINIMIZE
Selected RHS        name:  rhs
Selected bound      name:  bnd
Version identifier: 22.1.2.0 | 2024-11-26 | 0edbb82fd
CPXPARAM_Threads                                 8
CPXPARAM_Parallel                                1
CPXPARAM_MIP_Strategy_Branch                     -1
CPXPARAM_MIP_Cuts_FlowCovers                     2
CPXPARAM_MIP_Cuts_GUBCovers                      2
CPXPARAM_MIP_Limits_GomoryCand                   800
CPXPARAM_MIP_Cuts_Gomory                         2
CPXPARAM_MIP_Cuts_PathCut                        2
CPXPARAM_MIP_Cuts_MIRCut                         1
CPXPARAM_MIP_Cuts_Disjunctive                    1
CPXPARAM_Emphasis_MIP                            4
CPXPARAM_DetTimeLimit                            10000
Tried aggregator 3 times.
MIP Presolve eliminated 30810 rows and 1362 columns.
MIP Presolve modified 22293 coefficients.
Aggregator did 232 substitutions.
Reduced MIP has 11638 rows, 3580 columns, and 46688 nonzeros.
Reduced MIP has 1625 binaries, 0 generals, 0 SOSs, and 0 indicators.
Presolve time = 0.10 sec. (139.58 ticks)
Found incumbent of value 533875.101733 after 0.12 sec. (154.72 ticks)
Probing fixed 392 vars, tightened 1078 bounds.
Probing changed sense of 113 constraints.
Probing time = 0.08 sec. (90.30 ticks)
Cover probing fixed 0 vars, tightened 267 bounds.
Tried aggregator 2 times.
MIP Presolve eliminated 3295 rows and 847 columns.
MIP Presolve modified 7082 coefficients.
Aggregator did 11 substitutions.
Reduced MIP has 8332 rows, 2722 columns, and 31418 nonzeros.
Reduced MIP has 1168 binaries, 0 generals, 0 SOSs, and 0 indicators.
Presolve time = 0.04 sec. (44.43 ticks)
Probing fixed 1 vars, tightened 256 bounds.
Probing time = 0.04 sec. (44.20 ticks)
Cover probing fixed 0 vars, tightened 190 bounds.
Tried aggregator 1 time.
Detecting symmetries...
MIP Presolve eliminated 26 rows and 2 columns.
MIP Presolve modified 5059 coefficients.
Reduced MIP has 8306 rows, 2720 columns, and 31355 nonzeros.
Reduced MIP has 1167 binaries, 0 generals, 0 SOSs, and 0 indicators.
Presolve time = 0.02 sec. (22.06 ticks)
Probing fixed 0 vars, tightened 90 bounds.
Probing time = 0.04 sec. (40.55 ticks)
Cover probing fixed 0 vars, tightened 69 bounds.
Clique table members: 18692.
MIP emphasis: hidden feasible solutions.
MIP search method: dynamic search.
Parallel mode: deterministic, using up to 8 threads.
Root relaxation solution time = 0.11 sec. (144.31 ticks)

        Nodes                                         Cuts/
   Node  Left     Objective  IInf  Best Integer    Best Bound    ItCnt     Gap

*     0+    0                       533875.1017    44880.8652            91.59%
*     0+    0                       533847.9795    44880.8652            91.59%
*     0+    0                       333826.8649    44880.8652            86.56%
*     0+    0                       333809.0666    44880.8652            86.55%
      0     0    79213.0345   216   333809.0666    79213.0345     1531   76.27%
      0     0    96255.0282   295   333809.0666     Cuts: 233     2057   71.16%
      0     0    96264.3271   294   333809.0666     Cuts: 119     2633   71.16%
      0     0    96265.1819   299   333809.0666      Cuts: 87     2748   71.16%
*     0+    0                       333808.9660    96265.1819            71.16%
      0     0  -1.00000e+75     0   333808.9660    96265.1819     2748   71.16%
*     0+    0                       320985.2647    96265.1819            70.01%
      0     0    96268.0377   318   320985.2647      Cuts: 49     2921   70.01%
*     0+    0                       314565.4289    96268.0377            69.40%
*     0+    0                       128457.4569    96285.3254            25.04%
Detecting symmetries...
      0     2    96268.0377   318   128457.4569    96285.3254     2921   25.04%
Elapsed time = 4.24 sec. (6606.98 ticks, tree = 0.02 MB, solutions = 8)
     18    13   101664.5758   233   128457.4569    96285.3254     4257   25.04%
    100    87    97095.7680   222   128457.4569    96341.5513    11949   25.00%
    165   145   109725.3981   229   128457.4569    96341.5513    18005   25.00%
    181   167        cutoff         128457.4569    96341.5513    20639   25.00%
    193   175    96424.0015   215   128457.4569    96341.5513    23168   25.00%
    228   202   109153.0912   218   128457.4569    96341.5513    29784   25.00%
    301   259   115609.3286   189   128457.4569    96397.4193    38260   24.96%
    367   279   118690.6025   217   128457.4569    96397.4193    39994   24.96%
    433   352   109194.2618   229   128457.4569    96398.2770    47497   24.96%
    569   440   109412.4764   236   128457.4569    96398.2770    60755   24.96%
Elapsed time = 6.22 sec. (9754.81 ticks, tree = 0.68 MB, solutions = 8)

GUB cover cuts applied:  0
Clique cuts applied:  35
Implied bound cuts applied:  17
Flow cuts applied:  75
Mixed integer rounding cuts applied:  33
Flow path cuts applied:  0
Zero-half cuts applied:  18
Gomory fractional cuts applied:  16
Disjunctive cuts applied:  0
Cone linearizations applied:  0

Root node processing (before b&c):
  Real time             =    4.21 sec. (6571.30 ticks)
Parallel b&c, 8 threads:
  Real time             =    2.15 sec. (3468.43 ticks)
  Sync time (average)   =    0.22 sec.
  Wait time (average)   =    0.00 sec.
                          ------------
Total (root+branch&cut) =    6.35 sec. (10039.73 ticks)
Gap: 24.96%
Upper bound: 128457
Lower bound: 96399.3
End of CPLEX run. Time: 6.35721 seconds
